0 2
0 3
0 6
0 9
0 12
0 14
0 15
0 17
0 18
0 23
0 24
0 25
0 27
0 30
0 32
0 33
0 34
0 37
0 38
0 40
0 42
0 43
0 45
0 46
0 49
0 50
0 53
0 54
0 55
0 56
0 57
0 58
0 64
0 65
0 66
0 68
0 71
0 72
0 74
0 76
0 77
0 78
0 79
0 80
0 81
0 83
0 84
0 85
0 86
0 87
0 89
0 90
0 91
0 92
0 93
0 94
0 95
0 96
0 97
0 98
0 99
0 100
0 101
0 102
0 103
0 104
0 106
0 107
0 108
0 110
0 111
0 112
0 114
0 116
0 117
0 119
0 120
0 121
0 122
0 123
0 124
0 125
0 128
0 129
0 130
0 131
0 132
0 133
0 135
0 136
0 137
0 138
0 142
0 144
0 148
0 149
0 151
0 152
0 153
0 154
0 156
0 159
0 160
0 161
0 164
0 165
0 166
0 167
0 171
0 172
0 173
0 174
0 176
0 177
0 179
0 180
0 184
0 195
0 203
0 204
0 205
0 206
0 209
0 210
0 211
0 212
0 221
0 222
0 226
0 238
0 247
0 249
0 251
0 252
0 255
0 256
0 261
0 262
0 263
0 264
0 265
0 266
0 285
0 297
0 311
0 312
0 316
0 325
0 327
0 328
0 329
0 330
0 331
0 332
0 333
0 334
0 335
0 336
0 337
0 338
0 340
0 342
0 344
0 345
0 354
0 360
0 361
0 362
0 363
0 367
0 380
0 391
0 400
0 401
0 405
0 407
0 427
0 431
0 434
0 435
0 436
0 437
0 438
0 441
0 442
0 445
0 446
0 447
0 449
0 458
0 463
0 464
0 465
0 466
0 467
0 468
0 469
0 470
0 471
0 472
0 473
0 474
0 475
0 476
0 477
0 478
0 479
0 480
0 505
0 525
0 542
0 543
0 581
0 607
0 608
0 609
0 610
0 611
0 612
0 615
0 617
0 624
0 634
0 707
0 708
0 709
0 710
0 711
0 712
0 713
0 714
0 715
0 716
0 717
0 718
0 719
0 720
0 721
0 722
0 723
0 724
0 725
0 726
0 727
0 728
1 6
1 11
1 60
1 182
1 258
1 259
1 352
1 509
1 510
1 511
1 512
1 513
1 514
1 515
1 516
1 517
1 518
1 519
1 520
1 521
1 582
1 837
1 838
1 839
1 840
1 841
1 842
1 843
1 844
1 845
1 846
1 847
2 3
2 5
2 6
2 9
2 20
2 22
2 23
2 25
2 31
2 32
2 34
2 35
2 38
2 40
2 43
2 45
2 47
2 64
2 66
2 70
2 74
2 77
2 79
2 80
2 81
2 84
2 85
2 86
2 88
2 91
2 92
2 93
2 95
2 96
2 97
2 98
2 99
2 102
2 104
2 105
2 106
2 107
2 108
2 109
2 110
2 116
2 117
2 120
2 128
2 129
2 132
2 133
2 134
2 141
2 142
2 143
2 144
2 145
2 147
2 148
2 150
2 156
2 164
2 165
2 166
2 167
2 169
2 184
2 195
2 196
2 197
2 198
2 199
2 203
2 205
2 213
2 222
2 229
2 232
2 238
2 241
2 243
2 244
2 245
2 249
2 250
2 261
2 262
2 263
2 264
2 265
2 266
2 286
2 289
2 302
2 309
2 310
2 312
2 313
2 315
2 320
2 322
2 323
2 324
2 357
2 358
2 359
2 360
2 361
2 362
2 393
2 398
2 405
2 411
2 413
2 423
2 429
2 540
2 541
2 542
2 543
2 572
2 591
2 593
2 895
2 896
2 897
2 898
2 899
2 900
3 14
3 18
3 33
3 34
3 42
3 53
3 55
3 65
3 77
3 85
3 86
3 87
3 99
3 100
3 101
3 111
3 112
3 121
3 122
3 125
3 135
3 136
3 138
3 149
3 150
3 151
3 152
3 171
3 172
3 173
3 174
3 177
3 179
3 180
3 205
3 206
3 210
3 212
3 251
3 327
3 328
3 329
3 330
3 331
3 332
3 333
3 337
3 424
3 425
3 426
3 427
3 428
3 429
3 430
3 431
3 432
3 433
3 434
3 435
3 436
3 437
3 608
3 609
3 610
3 611
3 612
3 613
3 614
3 615
3 616
3 617
4 9
4 48
4 53
4 55
4 66
4 67
4 71
4 85
4 86
4 113
4 121
4 126
4 131
4 138
4 141
4 150
4 188
4 189
4 205
4 210
4 211
4 212
4 223
4 224
4 254
4 283
4 284
4 288
4 377
4 378
4 379
4 424
4 425
4 426
4 428
4 429
4 430
4 432
4 433
4 558
4 613
4 614
4 616
5 38
5 43
5 64
5 74
5 77
5 79
5 84
5 85
5 86
5 87
5 90
5 94
5 103
5 104
5 118
5 128
5 133
5 146
5 147
5 149
5 155
5 156
5 163
5 196
5 222
5 236
5 239
5 240
5 256
5 261
5 266
5 293
5 305
5 314
5 317
5 318
5 341
5 342
5 355
5 356
5 361
5 409
5 416
5 417
5 418
5 422
5 448
5 483
5 485
5 506
5 507
5 508
5 529
5 533
5 694
5 695
5 696
5 697
5 698
5 699
5 700
5 701
5 702
5 703
5 704
5 705
5 706
6 11
6 14
6 19
6 23
6 30
6 35
6 43
6 48
6 49
6 52
6 55
6 58
6 62
6 65
6 71
6 74
6 76
6 77
6 78
6 80
6 82
6 86
6 87
6 88
6 90
6 92
6 93
6 97
6 99
6 100
6 101
6 106
6 108
6 115
6 127
6 137
6 139
6 140
6 152
6 154
6 158
6 159
6 173
6 175
6 177
6 180
6 182
6 191
6 192
6 193
6 194
6 207
6 250
6 252
6 259
6 287
6 294
6 296
6 300
6 301
6 352
6 353
6 527
6 528
6 625
6 863
6 864
6 865
6 866
6 867
6 868
6 869
6 870
6 871
6 872
6 873
7 16
7 17
7 20
7 24
7 25
7 37
7 69
7 97
7 106
7 126
7 145
7 162
7 169
7 196
7 202
7 234
7 253
7 260
7 302
7 346
7 386
7 388
7 389
7 484
7 485
7 486
7 491
7 504
7 523
7 535
7 575
7 587
7 742
7 743
7 744
7 745
7 746
7 747
7 748
7 749
7 750
7 751
7 752
7 753
7 754
7 755
7 756
7 757
7 758
7 759
7 760
7 761
7 762
7 763
7 764
7 765
7 766
7 767
7 768
7 769
7 770
7 771
7 772
7 773
7 774
7 775
7 776
7 777
7 778
7 779
7 780
8 13
8 26
8 29
8 30
8 33
8 40
8 59
8 68
8 75
8 77
8 79
8 81
8 82
8 87
8 100
8 102
8 111
8 115
8 123
8 124
8 128
8 136
8 140
8 141
8 149
8 151
8 154
8 155
8 157
8 160
8 161
8 171
8 172
8 174
8 181
8 183
8 186
8 208
8 214
8 215
8 216
8 217
8 218
8 219
8 220
8 225
8 227
8 230
8 231
8 241
8 267
8 268
8 269
8 270
8 271
8 272
8 273
8 274
8 275
8 276
8 277
8 278
8 279
8 280
8 281
8 282
8 297
8 298
8 363
8 364
8 365
8 366
8 367
8 368
8 369
8 370
8 371
8 372
8 373
8 374
8 375
8 376
8 382
8 544
8 545
8 546
8 547
8 548
8 549
8 550
8 551
8 552
8 553
8 554
8 555
8 556
8 901
8 902
8 903
8 904
8 905
8 906
8 907
8 908
9 10
9 25
9 34
9 43
9 64
9 72
9 74
9 79
9 80
9 83
9 90
9 92
9 94
9 98
9 104
9 107
9 113
9 116
9 117
9 118
9 122
9 128
9 143
9 150
9 189
9 197
9 198
9 202
9 235
9 236
9 262
9 284
9 325
9 343
9 345
9 356
9 360
9 377
9 384
9 390
9 414
9 487
9 493
9 526
9 536
9 557
9 559
9 565
9 570
9 640
9 641
9 642
9 643
9 644
9 645
9 646
9 647
9 648
9 649
9 650
9 651
9 652
9 653
9 654
9 655
9 656
9 657
9 658
9 659
9 660
10 15
10 17
10 24
10 25
10 37
10 38
10 41
10 43
10 47
10 64
10 67
10 69
10 72
10 74
10 85
10 95
10 97
10 103
10 105
10 106
10 108
10 109
10 110
10 117
10 118
10 126
10 129
10 131
10 134
10 143
10 162
10 168
10 169
10 170
10 186
10 187
10 188
10 189
10 200
10 201
10 204
10 223
10 224
10 229
10 232
10 233
10 234
10 237
10 246
10 247
10 248
10 253
10 289
10 290
10 291
10 292
10 293
10 304
10 305
10 306
10 308
10 310
10 311
10 313
10 318
10 321
10 326
10 392
10 393
10 394
10 395
10 396
10 397
10 398
10 404
10 412
10 569
10 570
10 571
10 572
10 573
10 574
10 575
10 576
10 584
10 590
10 926
10 927
10 928
10 929
10 930
10 931
10 932
10 933
10 934
10 935
11 182
11 509
11 510
11 511
11 512
11 513
11 514
11 515
11 517
11 518
11 519
11 520
11 521
11 580
11 788
11 789
11 790
12 48
12 76
12 92
12 113
12 129
12 134
12 191
12 211
12 213
12 228
12 268
12 314
12 462
12 490
12 539
12 577
12 670
12 671
13 14
13 26
13 29
13 33
13 39
13 59
13 68
13 75
13 81
13 82
13 102
13 111
13 112
13 115
13 123
13 124
13 140
13 149
13 151
13 157
13 160
13 161
13 174
13 181
13 183
13 190
13 208
13 214
13 215
13 216
13 217
13 218
13 220
13 225
13 227
13 230
13 231
13 267
13 269
13 270
13 271
13 272
13 273
13 274
13 275
13 276
13 277
13 278
13 279
13 280
13 281
13 282
13 297
13 298
13 347
13 349
13 350
13 351
13 365
13 366
13 369
13 370
13 372
13 373
13 375
13 376
13 460
13 544
13 545
13 546
13 547
13 548
13 549
13 550
13 551
13 552
13 553
13 554
13 555
13 638
13 679
13 680
14 18
14 23
14 25
14 32
14 35
14 46
14 49
14 55
14 57
14 65
14 66
14 78
14 87
14 88
14 93
14 100
14 124
14 125
14 137
14 152
14 153
14 176
14 177
14 178
14 180
14 209
14 211
14 334
14 335
14 336
14 337
14 338
14 339
14 340
14 446
14 447
14 448
14 449
14 622
14 623
14 624
14 625
14 626
14 627
14 628
14 629
14 630
14 631
14 632
14 633
14 634
14 978
14 979
14 980
14 981
14 982
14 983
14 984
14 985
14 986
14 987
14 988
14 989
15 30
15 35
15 52
15 55
15 58
15 66
15 68
15 71
15 74
15 76
15 77
15 78
15 84
15 85
15 86
15 88
15 93
15 101
15 115
15 127
15 136
15 138
15 139
15 140
15 147
15 154
15 158
15 159
15 160
15 161
15 166
15 178
15 190
15 191
15 192
15 193
15 194
15 201
15 206
15 210
15 226
15 227
15 228
15 229
15 294
15 295
15 296
15 331
15 332
15 399
15 428
15 448
15 577
15 578
15 579
15 936
15 937
15 938
15 939
15 940
15 941
15 942
16 20
16 24
16 31
16 36
16 40
16 70
16 72
16 89
16 105
16 118
16 119
16 120
16 131
16 133
16 134
16 144
16 145
16 146
16 147
16 148
16 200
16 201
16 202
16 232
16 239
16 240
16 243
16 244
16 245
16 260
16 307
16 309
16 312
16 313
16 317
16 318
16 319
16 320
16 326
16 355
16 394
16 413
16 416
16 417
16 418
16 419
16 420
16 421
16 422
16 529
16 530
16 531
16 532
16 538
16 594
16 595
16 596
16 597
16 598
16 599
16 600
16 602
16 603
16 604
16 605
16 606
16 874
16 875
16 876
16 877
16 878
16 879
16 880
16 881
16 882
17 37
17 64
17 67
17 80
17 81
17 84
17 90
17 91
17 92
17 94
17 96
17 98
17 106
17 108
17 109
17 110
17 116
17 117
17 126
17 130
17 145
17 146
17 150
17 162
17 163
17 169
17 187
17 195
17 196
17 197
17 202
17 221
17 223
17 229
17 233
17 235
17 241
17 247
17 249
17 253
17 285
17 286
17 291
17 292
17 303
17 306
17 308
17 315
17 319
17 323
17 325
17 384
17 385
17 386
17 387
17 388
17 389
17 390
17 393
17 395
17 408
17 423
17 433
17 565
17 566
17 567
17 574
17 586
17 601
17 915
17 916
17 917
17 918
17 919
18 23
18 28
18 34
18 65
18 71
18 76
18 77
18 78
18 87
18 88
18 93
18 99
18 100
18 101
18 111
18 112
18 114
18 123
18 125
18 135
18 152
18 153
18 171
18 172
18 173
18 175
18 176
18 177
18 179
18 206
18 210
18 251
18 256
18 328
18 329
18 330
18 332
18 337
18 400
18 401
18 431
18 434
18 437
18 438
18 445
18 457
18 458
18 461
18 464
18 467
18 468
18 469
18 471
18 473
18 475
18 476
18 479
18 635
18 666
18 667
18 668
19 32
19 33
19 39
19 42
19 62
19 136
19 154
19 181
19 208
19 252
19 253
19 254
19 255
19 442
19 443
19 444
19 450
19 451
19 452
19 453
19 454
19 455
19 456
19 618
19 619
19 620
19 621
19 623
19 969
19 970
19 971
19 972
19 973
19 974
19 975
19 976
19 977
20 23
20 25
20 41
20 43
20 64
20 72
20 74
20 79
20 80
20 81
20 83
20 84
20 85
20 89
20 90
20 91
20 94
20 95
20 98
20 105
20 107
20 109
20 119
20 120
20 121
20 122
20 126
20 130
20 131
20 141
20 143
20 144
20 150
20 163
20 164
20 167
20 170
20 186
20 189
20 195
20 203
20 234
20 236
20 237
20 238
20 242
20 246
20 248
20 261
20 263
20 290
20 303
20 304
20 308
20 315
20 342
20 344
20 358
20 392
20 403
20 410
20 482
20 484
20 486
20 492
20 566
20 567
20 585
20 588
20 589
20 592
20 685
20 686
20 687
20 688
20 689
21 207
21 231
21 301
21 952
22 31
22 37
22 40
22 43
22 55
22 74
22 84
22 88
22 94
22 96
22 97
22 103
22 105
22 113
22 129
22 131
22 132
22 142
22 146
22 147
22 158
22 168
22 185
22 187
22 191
22 194
22 195
22 200
22 233
22 235
22 239
22 241
22 243
22 250
22 263
22 264
22 265
22 266
22 286
22 289
22 292
22 293
22 302
22 322
22 356
22 357
22 359
22 362
22 385
22 387
22 389
22 390
22 398
22 411
22 425
22 426
22 430
22 533
22 534
22 535
22 536
22 537
22 538
22 539
22 540
22 573
22 883
22 884
22 885
22 886
22 887
22 888
22 889
22 890
22 891
22 892
22 893
22 894
23 25
23 33
23 36
23 42
23 43
23 64
23 65
23 72
23 74
23 77
23 80
23 83
23 84
23 87
23 90
23 91
23 94
23 95
23 96
23 98
23 99
23 101
23 107
23 111
23 116
23 117
23 118
23 121
23 125
23 132
23 135
23 145
23 149
23 151
23 152
23 167
23 171
23 172
23 173
23 174
23 179
23 185
23 203
23 206
23 212
23 244
23 247
23 251
23 253
23 307
23 328
23 330
23 333
23 407
23 415
23 427
23 436
23 523
23 848
23 849
23 850
23 851
23 852
23 853
23 854
23 855
24 25
24 36
24 37
24 38
24 64
24 67
24 69
24 74
24 80
24 81
24 89
24 91
24 97
24 103
24 105
24 106
24 109
24 110
24 117
24 118
24 120
24 130
24 143
24 144
24 146
24 162
24 163
24 168
24 170
24 195
24 196
24 197
24 198
24 199
24 205
24 232
24 233
24 234
24 235
24 236
24 237
24 242
24 302
24 303
24 304
24 305
24 306
24 307
24 308
24 310
24 311
24 321
24 322
24 403
24 404
24 405
24 406
24 407
24 408
24 414
24 583
24 584
24 585
24 586
24 587
24 588
24 589
24 590
24 953
24 954
24 955
24 956
24 957
24 958
24 959
24 960
24 961
24 962
24 963
25 30
25 32
25 38
25 43
25 49
25 64
25 65
25 66
25 72
25 74
25 76
25 77
25 78
25 79
25 80
25 81
25 83
25 84
25 85
25 86
25 87
25 88
25 89
25 90
25 91
25 92
25 93
25 94
25 95
25 96
25 97
25 98
25 99
25 100
25 101
25 102
25 103
25 104
25 107
25 108
25 110
25 112
25 116
25 119
25 121
25 122
25 123
25 124
25 125
25 129
25 130
25 132
25 135
25 137
25 138
25 142
25 152
25 153
25 156
25 164
25 165
25 166
25 167
25 173
25 175
25 176
25 177
25 178
25 179
25 180
25 184
25 204
25 206
25 207
25 209
25 213
25 221
25 295
25 301
25 327
25 340
25 380
25 381
25 383
25 560
25 561
25 562
25 563
25 564
25 836
26 29
26 33
26 40
26 59
26 68
26 75
26 77
26 79
26 81
26 82
26 87
26 102
26 111
26 115
26 123
26 124
26 128
26 136
26 140
26 141
26 149
26 151
26 155
26 157
26 160
26 161
26 171
26 172
26 174
26 183
26 186
26 190
26 208
26 214
26 215
26 216
26 217
26 218
26 219
26 220
26 225
26 227
26 230
26 231
26 267
26 268
26 269
26 270
26 271
26 272
26 273
26 274
26 275
26 276
26 277
26 278
26 279
26 280
26 281
26 282
26 298
26 347
26 348
26 349
26 350
26 351
26 364
26 366
26 368
26 369
26 371
26 372
26 374
26 459
26 522
26 556
27 57
27 111
27 114
27 124
27 137
27 178
27 209
27 226
27 251
27 255
27 334
27 335
27 336
27 338
27 341
27 440
27 447
27 463
27 465
27 466
27 470
27 472
27 474
27 477
27 478
27 579
27 674
27 675
27 676
28 34
28 35
28 55
28 154
28 181
28 255
28 459
28 637
28 638
28 993
28 994
28 995
28 996
28 997
28 998
28 999
29 33
29 59
29 75
29 77
29 81
29 82
29 87
29 102
29 111
29 123
29 124
29 136
29 149
29 151
29 155
29 157
29 160
29 161
29 171
29 172
29 174
29 183
29 190
29 208
29 214
29 215
29 216
29 217
29 218
29 219
29 220
29 225
29 227
29 230
29 268
29 269
29 270
29 271
29 272
29 273
29 274
29 275
29 276
29 277
29 278
29 280
29 281
29 282
29 347
29 348
29 349
29 350
29 351
29 364
29 365
29 368
29 370
29 371
29 373
29 374
29 376
29 410
29 459
29 460
29 522
30 35
30 43
30 47
30 48
30 52
30 55
30 56
30 58
30 61
30 71
30 74
30 76
30 78
30 79
30 81
30 83
30 89
30 96
30 98
30 99
30 102
30 113
30 115
30 116
30 139
30 158
30 164
30 175
30 176
30 193
30 194
30 213
30 254
30 285
30 287
30 291
30 294
30 343
30 353
30 480
30 729
30 730
31 36
31 37
31 38
31 40
31 47
31 74
31 237
31 260
31 293
31 346
31 387
31 392
31 396
31 397
31 412
31 504
31 505
31 506
31 507
31 508
31 530
31 531
31 534
31 537
31 569
31 832
31 833
31 834
32 43
32 49
32 64
32 65
32 66
32 72
32 74
32 76
32 77
32 78
32 79
32 80
32 81
32 83
32 85
32 86
32 87
32 88
32 89
32 90
32 91
32 92
32 93
32 94
32 95
32 96
32 97
32 98
32 99
32 100
32 101
32 102
32 103
32 104
32 107
32 108
32 110
32 112
32 116
32 119
32 121
32 122
32 123
32 124
32 125
32 129
32 130
32 132
32 135
32 137
32 138
32 142
32 152
32 153
32 156
32 164
32 165
32 166
32 167
32 173
32 175
32 176
32 177
32 178
32 179
32 180
32 184
32 204
32 207
32 209
32 221
32 295
32 301
32 327
32 340
32 380
32 381
32 382
32 383
32 457
32 560
32 561
32 562
32 563
32 564
32 636
32 912
33 42
33 62
33 136
33 154
33 155
33 181
33 252
33 254
33 255
33 444
33 450
33 451
33 452
33 453
33 454
33 455
33 456
33 619
33 620
33 621
33 734
33 735
33 736
34 43
34 48
34 53
34 58
34 64
34 71
34 72
34 74
34 79
34 80
34 84
34 86
34 89
34 90
34 91
34 92
34 93
34 94
34 95
34 98
34 100
34 102
34 104
34 107
34 109
34 110
34 115
34 116
34 121
34 122
34 130
34 132
34 156
34 161
34 184
34 185
34 203
34 205
34 213
34 222
34 240
34 283
34 333
34 421
34 432
34 443
34 524
34 525
34 526
34 578
34 637
34 856
34 857
34 858
34 859
34 860
34 861
34 862
35 48
35 52
35 55
35 61
35 68
35 71
35 76
35 82
35 108
35 114
35 115
35 127
35 137
35 139
35 159
35 181
35 190
35 191
35 193
35 220
35 223
35 250
35 257
35 264
35 291
35 295
35 316
35 324
35 343
35 375
35 441
35 488
35 489
35 528
35 781
35 782
35 783
35 784
35 785
35 786
35 787
36 37
36 40
36 70
36 72
36 79
36 80
36 83
36 84
36 89
36 95
36 103
36 104
36 105
36 107
36 109
36 110
36 116
36 117
36 118
36 119
36 120
36 128
36 129
36 130
36 131
36 133
36 134
36 141
36 142
36 143
36 144
36 145
36 148
36 150
36 163
36 164
36 165
36 166
36 168
36 196
36 197
36 198
36 199
36 200
36 201
36 202
36 238
36 239
36 240
36 241
36 242
36 243
36 244
36 245
36 309
36 310
36 311
36 312
36 313
36 314
36 315
36 320
36 326
36 409
36 410
36 411
36 412
36 413
36 414
36 415
36 591
36 592
36 593
36 964
36 965
37 40
37 43
37 61
37 64
37 74
37 79
37 80
37 81
37 84
37 85
37 95
37 96
37 97
37 103
37 105
37 106
37 109
37 117
37 118
37 120
37 122
37 133
37 144
37 145
37 146
37 147
37 162
37 163
37 168
37 169
37 187
37 198
37 199
37 200
37 234
37 237
37 240
37 246
37 248
37 285
37 286
37 289
37 290
37 304
37 319
37 323
37 324
37 346
37 354
37 357
37 384
37 386
37 388
37 395
37 396
37 397
37 404
37 481
37 482
37 571
37 731
37 732
37 733
38 43
38 64
38 72
38 74
38 79
38 80
38 81
38 83
38 84
38 89
38 90
38 91
38 92
38 94
38 95
38 96
38 98
38 100
38 103
38 104
38 107
38 110
38 117
38 119
38 120
38 122
38 128
38 129
38 130
38 132
38 142
38 143
38 148
38 156
38 163
38 165
38 166
38 170
38 183
38 184
38 186
38 187
38 198
38 204
38 221
38 238
38 242
38 249
38 262
38 265
38 306
38 321
38 344
38 345
38 385
38 403
38 419
38 435
38 490
38 491
38 492
38 493
38 524
38 541
38 583
38 791
38 792
38 793
38 794
38 795
38 796
38 797
38 798
38 799
38 800
39 58
39 61
39 62
39 71
39 76
39 77
39 78
39 100
39 102
39 112
39 123
39 135
39 153
39 181
39 230
39 297
39 298
39 299
39 300
39 305
39 400
39 401
39 439
39 440
39 580
39 581
39 943
39 944
39 945
39 946
39 947
39 948
39 949
39 950
39 951
40 72
40 83
40 89
40 95
40 105
40 118
40 119
40 120
40 133
40 134
40 143
40 144
40 145
40 146
40 147
40 148
40 200
40 201
40 202
40 243
40 244
40 245
40 317
40 318
40 319
40 320
40 416
40 417
40 418
40 419
40 420
40 421
40 422
40 594
40 595
40 596
40 597
40 598
40 599
40 600
40 601
40 602
40 603
40 604
40 605
40 606
40 966
40 967
41 48
41 67
41 71
41 86
41 113
41 115
41 126
41 131
41 141
41 159
41 188
41 189
41 224
41 283
41 284
41 288
41 309
41 377
41 378
41 379
41 406
41 558
41 559
41 910
41 911
42 81
42 450
42 451
42 452
42 453
42 454
42 455
42 456
42 990
42 991
42 992
43 47
43 56
43 64
43 67
43 74
43 80
43 81
43 84
43 85
43 89
43 90
43 91
43 92
43 96
43 97
43 98
43 106
43 107
43 108
43 109
43 110
43 120
43 122
43 132
43 133
43 134
43 147
43 148
43 167
43 168
43 169
43 170
43 203
43 204
43 246
43 247
43 248
43 249
43 250
43 321
43 322
43 323
43 324
43 325
43 326
43 423
43 607
44 50
44 74
44 112
44 162
44 494
44 495
44 496
44 497
44 498
44 499
44 500
44 501
44 502
44 503
44 618
44 672
44 673
45 77
45 78
45 93
45 101
45 125
45 383
45 661
45 662
45 663
45 664
46 78
46 87
46 88
46 93
46 99
46 101
46 124
46 135
46 176
46 178
46 209
46 339
46 382
46 391
46 399
46 568
46 690
46 691
47 48
47 58
47 64
47 66
47 74
47 76
47 77
47 78
47 79
47 80
47 82
47 84
47 86
47 87
47 89
47 90
47 91
47 94
47 103
47 104
47 118
47 125
47 146
47 158
47 185
47 199
47 222
47 223
47 224
47 239
47 242
47 287
47 288
47 294
47 307
47 317
47 408
47 409
47 576
48 52
48 58
48 61
48 67
48 71
48 76
48 82
48 85
48 86
48 113
48 126
48 127
48 139
48 141
48 188
48 189
48 192
48 224
48 283
48 284
48 288
48 378
48 379
48 406
48 557
48 909
49 87
49 363
49 632
49 802
49 803
49 804
49 805
49 806
49 807
49 808
49 809
49 810
49 811
49 812
49 813
49 814
49 815
49 816
49 817
49 818
49 819
49 820
49 821
49 822
49 823
49 824
49 825
49 826
49 827
49 828
49 829
49 830
49 831
50 494
50 495
50 496
50 497
50 498
50 499
50 500
50 501
50 502
50 503
50 801
51 182
51 258
51 259
51 352
51 516
51 527
51 693
52 53
52 55
52 58
52 61
52 66
52 71
52 76
52 108
52 113
52 114
52 115
52 127
52 134
52 139
52 158
52 159
52 192
52 193
52 215
52 228
52 257
52 296
52 331
52 399
52 489
52 677
52 678
53 54
53 78
53 112
53 123
53 125
53 175
53 207
53 438
53 439
53 440
53 441
53 968
54 55
54 85
54 86
54 121
54 138
54 150
54 182
54 212
54 258
54 259
54 424
55 57
55 58
55 76
55 77
55 108
55 127
55 296
55 439
55 446
55 462
55 683
55 684
56 65
56 76
56 86
56 88
56 99
56 113
56 226
56 232
56 290
56 353
57 334
57 335
57 336
57 338
57 339
57 449
57 622
57 626
57 627
57 628
57 629
57 630
57 631
57 633
57 669
58 76
58 111
58 139
58 160
58 175
58 191
58 193
58 257
58 292
58 300
58 348
58 367
58 461
58 681
58 682
59 68
59 75
59 82
59 140
59 155
59 183
59 214
59 216
59 217
59 218
59 219
59 231
59 267
59 279
60 61
60 66
60 114
60 192
60 207
60 329
60 913
60 914
61 76
61 113
61 114
61 127
61 139
61 162
61 168
61 194
61 665
62 154
62 155
62 157
62 219
62 252
62 254
62 442
62 443
62 444
62 483
62 488
62 737
62 738
62 739
62 740
62 741
63 78
63 93
63 178
63 339
63 391
63 568
63 920
63 921
63 922
63 923
63 924
63 925
64 67
64 85
64 97
64 105
64 106
64 109
64 119
64 133
64 170
64 197
64 199
64 201
64 229
64 233
64 236
64 248
64 303
64 835
65 77
65 78
65 88
65 93
65 101
65 112
65 137
65 153
65 179
65 180
65 210
65 457
65 458
65 635
66 71
66 76
66 77
66 78
66 88
66 96
66 100
66 101
66 114
66 121
66 127
66 135
66 140
66 153
66 159
66 192
66 256
67 74
67 105
67 106
67 109
67 119
67 126
67 134
67 170
67 185
67 235
67 394
67 639
68 157
68 188
68 228
68 299
68 402
69 148
69 187
69 358
70 131
70 260
70 355
70 420
70 532
70 692
71 82
71 287
71 487
72 481
73 79
73 83
73 126
73 128
73 142
73 158
73 165
73 245
73 354
74 89
74 90
74 91
75 225
83 104
